-9122464442257314162;-9204976294838210670;-9216720368547762283;-9221232221128659415;-9221232221128659415;-9221232221128659415;-9221232221128659415;-9221232221128659415;-9221232221128659415;-9221232221128659415;-9221232221128659415;-9221232221128659415;-9221232221128659415;-9221232221128659415;-9221232221128659415;-9221232221128659415;-9221232221128659415;-9221232221128659415;-9221232221128659415;-9221232221128659415;-9221232221128659415;-9221232221128659415;-9221232221128659415;-9221232221128659415;-9221232221128659415;-9221232221128659415;-9221232221128659415;-9221232221128659415;-9221232221128659415;-9222976294838212287;-9222976294838212287;-9222976294838212287;-9222976294838212287;-9222976294838212287;-9222976294838212287;-9222976294838212287;-9222976294838212287;-9222976294838212287;-9222976294838212287;-9222976294838212287;-9222976294838212287;-9222976294838212287;-9222976294838212287;-9222976294838212287;-9222976294838212287;-9222976294838212287;-9222976294838212287;-9222976294838212287;-9222976294838212287;-9222976294838212287;
-9147976294838211705;-9217952589676419679;-9217952589676419679;-9217952589676419679;-9219976294838211754;-9219976294838211754;-9219976294838211754;-9221976294838213027;-9221976294838213027;-9221976294838213027;-9221976294838213027;-9221976294838213027;-9221976294838213027;-9221976294838213027;-9221976294838213027;-9221976294838213027;-9221976294838213027;-9221976294838213027;-9222976294838211251;-9222976294838211251;-9222976294838211251;-9222976294838211251;-9222976294838211251;-9222976294838211251;-9222976294838211251;-9222976294838211251;-9222976294838211251;-9222976294838211251;-9222976294838211251;-9223232221128660139;-9223232221128660139;-9223232221128660139;-9223232221128660139;-9223232221128660139;-9223232221128660139;-9223232221128660139;-9223232221128660139;-9223232221128660139;-9223232221128660139;-9223232221128660139;-9223232221128660139;-9223232221128660139;-9223232221128660139;-9223232221128660139;-9223232221128660139;-9223232221128660139;-9223232221128660139;-9223232221128660139;-9223232221128660139;-9223232221128660139;
-9139976294838210077;-9206464442257316170;-9215720368547762577;-9215720368547762577;-9215720368547762577;-9222232221128659787;-9222232221128659787;-9222232221128659787;-9222232221128659787;-9222232221128659787;-9222232221128659787;-9222232221128659787;-9222232221128659787;-9222232221128659787;-9222232221128659787;-9222232221128659787;-9222232221128659787;-9223208515966866935;-9223208515966866935;-9223208515966866935;-9223208515966866935;-9223208515966866935;-9223208515966866935;-9223208515966866935;-9223208515966866935;-9223208515966866935;-9223208515966866935;-9223208515966866935;-9223208515966866935;-9223208515966866935;-9223208515966866935;-9223208515966866935;-9223208515966866935;-9223208515966866935;-9223208515966866935;-9223208515966866935;-9223208515966866935;-9223208515966866935;-9223208515966866935;-9223208515966866935;-9223208515966866935;-9223208515966866935;-9223208515966866935;-9223208515966866935;-9223208515966866935;-9223208515966866935;-9223208515966866935;-9223208515966866935;-9223208515966866935;-9223208515966866935;
-9064720368547763003;-9222232221128657535;-9222232221128657535;-9222232221128657535;-9222232221128657535;-9222232221128657535;-9222232221128657535;-9222488147419107575;-9222488147419107575;-9223232221128660036;-9223232221128660036;-9223232221128660036;-9223232221128660036;-9223232221128660036;-9223232221128660036;-9223232221128660036;-9223232221128660036;-9223232221128660036;-9223232221128660036;-9223232221128660036;-9223232221128660036;-9223232221128660036;-9223232221128660036;-9223232221128660036;-9223232221128660036;-9223232221128660036;-9223232221128660036;-9223232221128660036;-9223232221128660036;-9223232221128660036;-9223232221128660036;-9223232221128660036;-9223232221128660036;-9223232221128660036;-9223232221128660036;-9223232221128660036;-9223232221128660036;-9223232221128660036;-9223232221128660036;-9223232221128660036;-9223232221128660036;-9223232221128660036;-9223232221128660036;-9223232221128660036;-9223232221128660036;-9223232221128660036;-9223232221128660036;-9223232221128660036;-9223232221128660036;-9223232221128660036;
-9132720368547763927;-9197232221128658215;-9219232221128658678;-9219232221128658678;-9219232221128658678;-9219232221128658678;-9219232221128658678;-9219232221128658678;-9219232221128658678;-9220720368547763038;-9220720368547763038;-9220720368547763038;-9220720368547763038;-9220720368547763038;-9220720368547763038;-9221488147419107550;-9221488147419107550;-9221488147419107550;-9222208515966866609;-9222208515966866609;-9222208515966866609;-9222208515966866609;-9222208515966866609;-9222208515966866609;-9222208515966866609;-9222208515966866609;-9222208515966866609;-9222208515966866609;-9222208515966866609;-9222208515966866609;-9222208515966866609;-9222208515966866609;-9222208515966866609;-9222208515966866609;-9222488147419106267;-9222488147419106267;-9222488147419106267;-9222488147419106267;-9222488147419106267;-9222488147419106267;-9222488147419106267;-9222488147419106267;-9222488147419106267;-9222488147419106267;-9222488147419106267;-9222488147419106267;-9222488147419106267;-9222488147419106267;-9222488147419106267;-9222488147419106267;
-8944488147419107254;-9213232221128659277;-9213232221128659277;-9222976294838210797;-9222976294838210797;-9222976294838210797;-9222976294838210797;-9222976294838210797;-9222976294838210797;-9222976294838210797;-9222976294838210797;-9222976294838210797;-9222976294838210797;-9222976294838210797;-9222976294838210797;-9222976294838210797;-9223232221128660032;-9223232221128660032;-9223232221128660032;-9223232221128660032;-9223232221128660032;-9223232221128660032;-9223232221128660032;-9223232221128660032;-9223232221128660032;-9223232221128660032;-9223232221128660032;-9223232221128660032;-9223232221128660032;-9223232221128660032;-9223232221128660032;-9223232221128660032;-9223232221128660032;-9223232221128660032;-9223232221128660032;-9223232221128660032;-9223232221128660032;-9223232221128660032;-9223232221128660032;-9223232221128660032;-9223232221128660032;-9223232221128660032;-9223232221128660032;-9223232221128660032;-9223232221128660032;-9223232221128660032;-9223232221128660032;-9223232221128660032;-9223232221128660032;-9223232221128660032;
-8876232221128658676;-9221952589676418089;-9221952589676418089;-9221952589676418089;-9221952589676418089;-9221952589676418089;-9221952589676418089;-9221952589676418089;-9221952589676418089;-9221952589676418089;-9221952589676418089;-9221952589676418089;-9223208515966868007;-9223208515966868007;-9223208515966868007;-9223208515966868007;-9223208515966868007;-9223208515966868007;-9223208515966868007;-9223208515966868007;-9223208515966868007;-9223208515966868007;-9223208515966868007;-9223208515966868007;-9223208515966868007;-9223208515966868007;-9223208515966868007;-9223208515966868007;-9223208515966868007;-9223208515966868007;-9223208515966868007;-9223208515966868007;-9223208515966868007;-9223208515966868007;-9223208515966868007;-9223208515966868007;-9223208515966868007;-9223208515966868007;-9223208515966868007;-9223208515966868007;-9223208515966868007;-9223208515966868007;-9223208515966868007;-9223208515966868007;-9223208515966868007;-9223208515966868007;-9223208515966868007;-9223208515966868007;-9223208515966868007;-9223208515966868007;
-8930232221128660184;-9191720368547763616;-9191720368547763616;-9191720368547763616;-9215232221128657664;-9219488147419107251;-9219488147419107251;-9219488147419107251;-9219488147419107251;-9219488147419107251;-9219488147419107251;-9219488147419107251;-9219488147419107251;-9219488147419107251;-9219488147419107251;-9220464442257315419;-9220464442257315419;-9220464442257315419;-9220464442257315419;-9220464442257315419;-9220464442257315419;-9221232221128657814;-9221232221128657814;-9221720368547764142;-9221976294838211105;-9221976294838211105;-9221976294838211105;-9221976294838211105;-9221976294838211105;-9221976294838211105;-9221976294838211105;-9223232221128659526;-9223232221128659526;-9223232221128659526;-9223232221128659526;-9223232221128659526;-9223232221128659526;-9223232221128659526;-9223232221128659526;-9223232221128659526;-9223232221128659526;-9223232221128659526;-9223232221128659526;-9223232221128659526;-9223232221128659526;-9223232221128659526;-9223232221128659526;-9223232221128659526;-9223232221128659526;-9223232221128659526;
-9123232221128658991;-9197976294838211391;-9219464442257315341;-9219464442257315341;-9219464442257315341;-9222488147419108440;-9222488147419108440;-9222488147419108440;-9222488147419108440;-9222488147419108440;-9222488147419108440;-9222488147419108440;-9222488147419108440;-9222488147419108440;-9222488147419108440;-9222488147419108440;-9222488147419108440;-9222488147419108440;-9222488147419108440;-9222488147419108440;-9222488147419108440;-9222488147419108440;-9222720368547763901;-9222720368547763901;-9222720368547763901;-9222720368547763901;-9222720368547763901;-9222720368547763901;-9222720368547763901;-9222720368547763901;-9222720368547763901;-9222720368547763901;-9222720368547763901;-9222720368547763901;-9222720368547763901;-9222720368547763901;-9222720368547763901;-9222720368547763901;-9222720368547763901;-9222720368547763901;-9222720368547763901;-9222720368547763901;-9222720368547763901;-9222720368547763901;-9222720368547763901;-9222720368547763901;-9222720368547763901;-9222720368547763901;-9222720368547763901;-9222720368547763901;
-9171976294838212695;-9205232221128659019;-9217952589676420215;-9217952589676420215;-9217952589676420215;-9217952589676420215;-9217952589676420215;-9217952589676420215;-9221488147419107594;-9221488147419107594;-9221488147419107594;-9221488147419107594;-9221488147419107594;-9221488147419107594;-9221720368547764294;-9221720368547764294;-9221720368547764294;-9221976294838209998;-9221976294838209998;-9221976294838209998;-9221976294838209998;-9221976294838209998;-9221976294838209998;-9222744073709556549;-9222744073709556549;-9222744073709556549;-9222744073709556549;-9222744073709556549;-9222744073709556549;-9222744073709556549;-9222744073709556549;-9222744073709556549;-9222744073709556549;-9222744073709556549;-9222744073709556549;-9222744073709556549;-9222744073709556549;-9222744073709556549;-9222744073709556549;-9222744073709556549;-9222744073709556549;-9222744073709556549;-9222744073709556549;-9222744073709556549;-9222744073709556549;-9222744073709556549;-9222744073709556549;-9222744073709556549;-9222744073709556549;-9222744073709556549;
-8928720368547763137;-9209488147419108194;-9214488147419107592;-9214488147419107592;-9220976294838209132;-9220976294838209132;-9220976294838209132;-9220976294838209132;-9220976294838209132;-9220976294838209132;-9220976294838209132;-9223232221128658752;-9223232221128658752;-9223232221128658752;-9223232221128658752;-9223232221128658752;-9223232221128658752;-9223232221128658752;-9223232221128658752;-9223232221128658752;-9223232221128658752;-9223232221128658752;-9223232221128658752;-9223232221128658752;-9223232221128658752;-9223232221128658752;-9223232221128658752;-9223232221128658752;-9223232221128658752;-9223232221128658752;-9223232221128658752;-9223232221128658752;-9223232221128658752;-9223232221128658752;-9223232221128658752;-9223232221128658752;-9223232221128658752;-9223232221128658752;-9223232221128658752;-9223232221128658752;-9223232221128658752;-9223232221128658752;-9223232221128658752;-9223232221128658752;-9223232221128658752;-9223232221128658752;-9223232221128658752;-9223232221128658752;-9223232221128658752;-9223232221128658752;
-8872488147419108148;-9222232221128659627;-9222232221128659627;-9222232221128659627;-9222232221128659627;-9222232221128660555;-9222232221128660555;-9222232221128660555;-9222232221128660555;-9222232221128660555;-9222232221128660555;-9222232221128660555;-9222232221128660555;-9222232221128660555;-9222232221128660555;-9222232221128660555;-9222232221128660555;-9222232221128660555;-9222232221128660555;-9222232221128660555;-9222232221128660555;-9222232221128660555;-9222232221128660555;-9222232221128660555;-9222232221128660555;-9222232221128660555;-9222232221128660555;-9222232221128660555;-9222232221128660555;-9222232221128660555;-9222232221128660555;-9222232221128660555;-9222232221128660555;-9222232221128660555;-9222232221128660555;-9222232221128660555;-9222232221128660555;-9222232221128660555;-9222232221128660555;-9222232221128660555;-9222232221128660555;-9222232221128660555;-9222232221128660555;-9222232221128660555;-9222232221128660555;-9222232221128660555;-9222232221128660555;-9222232221128660555;-9222232221128660555;-9222232221128660555;
-9196208515966865868;-9222976294838211255;-9222976294838211255;-9222976294838211255;-9222976294838211255;-9222976294838211255;-9222976294838211255;-9222976294838211255;-9222976294838211255;-9222976294838211255;-9222976294838211255;-9222976294838211255;-9222976294838211255;-9222976294838211255;-9222976294838211255;-9222976294838211255;-9222976294838211255;-9222976294838211255;-9222976294838211255;-9222976294838211255;-9222976294838211255;-9222976294838211255;-9222976294838211255;-9222976294838211255;-9222976294838211255;-9222976294838211255;-9222976294838211255;-9222976294838211255;-9222976294838211255;-9222976294838211255;-9222976294838211255;-9222976294838211255;-9222976294838211255;-9222976294838211255;-9222976294838211255;-9222976294838211255;-9222976294838211255;-9222976294838211255;-9222976294838211255;-9222976294838211255;-9222976294838211255;-9222976294838211255;-9222976294838211255;-9222976294838211255;-9222976294838211255;-9222976294838211255;-9222976294838211255;-9222976294838211255;-9222976294838211255;-9222976294838211255;
-9169232221128658885;-9219232221128659424;-9219232221128659424;-9219232221128659424;-9219232221128659424;-9222976294838212332;-9222976294838212332;-9222976294838212332;-9222976294838212332;-9222976294838212332;-9222976294838212332;-9222976294838212332;-9222976294838212332;-9222976294838212332;-9222976294838212332;-9222976294838212610;-9222976294838212610;-9222976294838212610;-9222976294838212610;-9222976294838212610;-9222976294838212610;-9222976294838212610;-9222976294838212610;-9222976294838212610;-9222976294838212610;-9222976294838212610;-9222976294838212610;-9222976294838212610;-9222976294838212610;-9222976294838212610;-9222976294838212610;-9222976294838212610;-9222976294838212610;-9222976294838212610;-9222976294838212610;-9222976294838212610;-9222976294838212610;-9222976294838212610;-9222976294838212610;-9222976294838212610;-9222976294838212610;-9222976294838212610;-9222976294838212610;-9222976294838212610;-9222976294838212610;-9222976294838212610;-9222976294838212610;-9222976294838212610;-9222976294838212610;-9222976294838212610;
-8751976294838211201;-9199976294838210348;-9200720368547763195;-9200720368547763195;-9221488147419107548;-9221488147419107548;-9221488147419107548;-9221488147419107548;-9221488147419107548;-9221488147419107548;-9221488147419107548;-9221488147419107548;-9221488147419107548;-9221488147419107548;-9221488147419107548;-9221488147419107548;-9221488147419107548;-9221488147419107548;-9221488147419107548;-9221488147419107548;-9221488147419107548;-9221488147419107548;-9221488147419107548;-9221720368547763671;-9221720368547763671;-9223232221128659611;-9223232221128659611;-9223232221128659611;-9223232221128659611;-9223232221128659611;-9223232221128659611;-9223232221128659611;-9223232221128659611;-9223232221128659611;-9223232221128659611;-9223232221128659611;-9223232221128659611;-9223232221128659611;-9223232221128659611;-9223232221128659611;-9223232221128659611;-9223232221128659611;-9223232221128659611;-9223232221128659611;-9223232221128659611;-9223232221128659611;-9223232221128659611;-9223232221128659611;-9223232221128659611;-9223232221128659611;
-8411976294838211762;-9221976294838210272;-9221976294838210272;-9221976294838210272;-9221976294838210272;-9221976294838210272;-9221976294838210272;-9221976294838210272;-9221976294838210272;-9221976294838210272;-9221976294838210272;-9221976294838210272;-9221976294838210272;-9221976294838210272;-9221976294838210272;-9221976294838210272;-9221976294838210272;-9221976294838210272;-9221976294838210272;-9221976294838210272;-9221976294838210272;-9221976294838210272;-9221976294838210272;-9221976294838210272;-9221976294838210272;-9221976294838210272;-9221976294838210272;-9221976294838210272;-9221976294838210272;-9221976294838210272;-9221976294838210272;-9221976294838210272;-9221976294838210272;-9221976294838210272;-9221976294838210272;-9221976294838210272;-9221976294838210272;-9221976294838210272;-9221976294838210272;-9221976294838210272;-9221976294838210272;-9221976294838210272;-9221976294838210272;-9221976294838210272;-9221976294838210272;-9221976294838210272;-9221976294838210272;-9221976294838210272;-9221976294838210272;-9221976294838210272;
-9094232221128659487;-9204976294838211142;-9220232221128658309;-9220232221128658309;-9220720368547762316;-9223232221128659014;-9223232221128659014;-9223232221128659014;-9223232221128659014;-9223232221128659014;-9223232221128659014;-9223232221128659014;-9223232221128659014;-9223232221128659014;-9223232221128659014;-9223232221128659014;-9223232221128659014;-9223232221128659014;-9223232221128659014;-9223232221128659014;-9223232221128659014;-9223232221128659014;-9223232221128659014;-9223232221128659014;-9223232221128659014;-9223232221128659014;-9223232221128659014;-9223232221128659014;-9223232221128659014;-9223232221128659014;-9223232221128659014;-9223232221128659014;-9223232221128659014;-9223232221128659014;-9223232221128659014;-9223232221128659014;-9223232221128659014;-9223232221128659014;-9223232221128659014;-9223232221128659014;-9223232221128659014;-9223232221128659014;-9223232221128659014;-9223232221128659014;-9223232221128659014;-9223232221128659014;-9223232221128659014;-9223232221128659014;-9223232221128659014;-9223232221128659014;
-9203744073709554491;-9214232221128661051;-9221464442257315297;-9221464442257315297;-9221464442257315297;-9221464442257315297;-9221464442257315297;-9221464442257315297;-9221464442257315297;-9221464442257315297;-9221464442257315297;-9221464442257315297;-9221464442257315297;-9221976294838210947;-9221976294838210947;-9222976294838210619;-9222976294838210619;-9222976294838210619;-9222976294838210619;-9222976294838210619;-9222976294838210619;-9222976294838210619;-9222976294838210619;-9223232221128657952;-9223232221128657952;-9223232221128657952;-9223232221128657952;-9223232221128657952;-9223232221128657952;-9223232221128657952;-9223232221128657952;-9223232221128657952;-9223232221128657952;-9223232221128657952;-9223232221128657952;-9223232221128657952;-9223232221128657952;-9223232221128657952;-9223232221128657952;-9223232221128657952;-9223232221128657952;-9223232221128657952;-9223232221128657952;-9223232221128657952;-9223232221128657952;-9223232221128657952;-9223232221128657952;-9223232221128657952;-9223232221128657952;-9223232221128657952;
-9113488147419106641;-9211208515966866549;-9211208515966866549;-9216720368547762947;-9216720368547762947;-9216720368547762947;-9216720368547762947;-9218232221128659754;-9218232221128659754;-9218464442257316086;-9218464442257316086;-9218464442257316086;-9218464442257316086;-9218464442257316086;-9218464442257316086;-9218464442257316086;-9221464442257314883;-9221464442257314883;-9221464442257314883;-9222488147419108336;-9222488147419108336;-9222488147419108336;-9222976294838209415;-9222976294838209415;-9222976294838209415;-9222976294838209415;-9222976294838209415;-9222976294838209415;-9222976294838209415;-9222976294838209415;-9222976294838209415;-9222976294838210919;-9222976294838210919;-9222976294838210919;-9222976294838210919;-9222976294838210919;-9222976294838210919;-9222976294838210919;-9222976294838210919;-9222976294838210919;-9222976294838210919;-9222976294838210919;-9222976294838210919;-9222976294838210919;-9222976294838210919;-9222976294838210919;-9222976294838210919;-9222976294838210919;-9222976294838210919;-9222976294838210919;
-8924208515966867451;-9214720368547762032;-9214720368547762032;-9215976294838209556;-9223208515966867352;-9223208515966867352;-9223208515966867352;-9223208515966867352;-9223208515966867352;-9223208515966867352;-9223208515966867352;-9223208515966867352;-9223208515966867352;-9223208515966867352;-9223208515966867352;-9223208515966867352;-9223208515966867352;-9223208515966867352;-9223208515966867352;-9223208515966867352;-9223208515966867352;-9223208515966867352;-9223208515966867352;-9223208515966867352;-9223208515966867352;-9223208515966868125;-9223208515966868125;-9223208515966868125;-9223208515966868125;-9223208515966868125;-9223208515966868125;-9223208515966868125;-9223208515966868125;-9223208515966868125;-9223208515966868125;-9223208515966868125;-9223208515966868125;-9223208515966868125;-9223208515966868125;-9223208515966868125;-9223208515966868125;-9223208515966868125;-9223208515966868125;-9223208515966868125;-9223208515966868125;-9223208515966868125;-9223208515966868125;-9223208515966868125;-9223208515966868125;-9223208515966868125;
-9189488147419107602;-9189488147419107602;-9220232221128658395;-9220232221128658966;-9220720368547763111;-9221976294838211543;-9221976294838211543;-9221976294838211543;-9221976294838211543;-9221976294838211543;-9221976294838211543;-9221976294838211543;-9221976294838211543;-9221976294838211543;-9223232221128661410;-9223232221128661410;-9223232221128661410;-9223232221128661410;-9223232221128661410;-9223232221128661410;-9223232221128661410;-9223232221128661410;-9223232221128661410;-9223232221128661410;-9223232221128661410;-9223232221128661410;-9223232221128661410;-9223232221128661410;-9223232221128661410;-9223232221128661410;-9223232221128661410;-9223232221128661410;-9223232221128661410;-9223232221128661410;-9223232221128661410;-9223232221128661410;-9223232221128661410;-9223232221128661410;-9223232221128661410;-9223232221128661410;-9223232221128661410;-9223232221128661410;-9223232221128661410;-9223232221128661410;-9223232221128661410;-9223232221128661410;-9223232221128661410;-9223232221128661410;-9223232221128661410;-9223232221128661410;
-8852976294838209461;-9220208515966864781;-9220208515966864781;-9220208515966864781;-9220208515966864781;-9220208515966864781;-9220208515966864781;-9220208515966864781;-9220208515966864781;-9220208515966864781;-9220208515966864781;-9220208515966864781;-9220208515966864781;-9221976294838210977;-9221976294838210977;-9221976294838210977;-9221976294838210977;-9221976294838210977;-9221976294838210977;-9222720368547762339;-9222720368547762339;-9222720368547762339;-9222720368547762339;-9222720368547762339;-9222720368547762339;-9222720368547762339;-9222720368547762339;-9222720368547762339;-9222720368547762339;-9222720368547762339;-9223232221128658384;-9223232221128658384;-9223232221128658384;-9223232221128658384;-9223232221128658384;-9223232221128658384;-9223232221128658384;-9223232221128658384;-9223232221128658384;-9223232221128658384;-9223232221128658384;-9223232221128658384;-9223232221128658384;-9223232221128658384;-9223232221128658384;-9223232221128658384;-9223232221128658384;-9223232221128658384;-9223232221128658384;-9223232221128658384;
-9181952589676420170;-9204720368547761699;-9211976294838211492;-9213488147419109127;-9213720368547763279;-9218976294838212408;-9218976294838212408;-9223208515966866628;-9223208515966866628;-9223208515966866628;-9223208515966866628;-9223208515966866628;-9223208515966866628;-9223208515966866628;-9223208515966866628;-9223208515966866628;-9223208515966866628;-9223208515966866628;-9223208515966866628;-9223208515966866628;-9223208515966866628;-9223208515966866628;-9223208515966866628;-9223208515966866628;-9223208515966866628;-9223208515966866628;-9223208515966866628;-9223208515966866628;-9223208515966866628;-9223208515966866628;-9223208515966866628;-9223208515966866628;-9223208515966866628;-9223208515966866628;-9223208515966866628;-9223208515966866628;-9223208515966866628;-9223208515966866628;-9223208515966866628;-9223208515966866628;-9223208515966866628;-9223208515966866628;-9223208515966866628;-9223208515966866628;-9223208515966866628;-9223208515966866628;-9223208515966866628;-9223208515966866628;-9223208515966866628;-9223208515966866628;
-9111720368547762010;-9194720368547763948;-9214720368547763102;-9217232221128659297;-9222464442257316137;-9222464442257316137;-9222464442257316137;-9222464442257316137;-9222464442257316137;-9222464442257316137;-9222464442257316137;-9222464442257316137;-9222464442257316137;-9222464442257316137;-9222464442257316137;-9222464442257316137;-9222464442257316137;-9222464442257316137;-9222464442257316137;-9222464442257316137;-9222976294838210406;-9222976294838210406;-9222976294838210406;-9222976294838210406;-9222976294838210406;-9222976294838210406;-9222976294838210406;-9222976294838210406;-9222976294838210406;-9222976294838210406;-9222976294838210406;-9222976294838211195;-9222976294838211195;-9222976294838211195;-9222976294838211195;-9222976294838211195;-9222976294838211195;-9222976294838211195;-9222976294838211195;-9222976294838211195;-9222976294838211195;-9222976294838211195;-9222976294838211195;-9222976294838211195;-9222976294838211195;-9222976294838211195;-9222976294838211195;-9222976294838211195;-9222976294838211195;-9222976294838211195;
-9072464442257315401;-9215976294838212294;-9222976294838211161;-9222976294838211161;-9222976294838211161;-9222976294838211161;-9222976294838211161;-9222976294838211161;-9222976294838211161;-9222976294838211161;-9222976294838211161;-9222976294838211161;-9222976294838211161;-9222976294838211161;-9222976294838211161;-9222976294838211161;-9222976294838211161;-9222976294838211161;-9222976294838211161;-9222976294838211161;-9222976294838211161;-9222976294838211161;-9222976294838211161;-9222976294838211161;-9222976294838211161;-9223232221128658286;-9223232221128658286;-9223232221128658286;-9223232221128658286;-9223232221128658286;-9223232221128658286;-9223232221128658286;-9223232221128658286;-9223232221128658286;-9223232221128658286;-9223232221128658286;-9223232221128658286;-9223232221128658286;-9223232221128658286;-9223232221128658286;-9223232221128658286;-9223232221128658286;-9223232221128658286;-9223232221128658286;-9223232221128658286;-9223232221128658286;-9223232221128658286;-9223232221128658286;-9223232221128658286;-9223232221128658286;
-9132976294838210489;-9208232221128659593;-9208232221128659593;-9208232221128659593;-9208232221128659593;-9222720368547763785;-9222720368547763785;-9222720368547763785;-9222720368547763785;-9222720368547763785;-9222952589676420220;-9222952589676420220;-9222952589676420220;-9222952589676420220;-9222952589676420220;-9222952589676420220;-9222952589676420220;-9222952589676420220;-9222952589676420220;-9222952589676420220;-9222952589676420220;-9222952589676420220;-9223232221128659426;-9223232221128659426;-9223232221128659426;-9223232221128659426;-9223232221128659426;-9223232221128659426;-9223232221128659426;-9223232221128659426;-9223232221128659426;-9223232221128659426;-9223232221128659426;-9223232221128659426;-9223232221128659426;-9223232221128659426;-9223232221128659426;-9223232221128659426;-9223232221128659426;-9223232221128659426;-9223232221128659426;-9223232221128659426;-9223232221128659426;-9223232221128659426;-9223232221128659426;-9223232221128659426;-9223232221128659426;-9223232221128659426;-9223232221128659426;-9223232221128659426;
-9078208515966865763;-9222952589676420624;-9222952589676420624;-9222952589676420624;-9223232221128658646;-9223232221128658646;-9223232221128658646;-9223232221128658646;-9223232221128658646;-9223232221128658646;-9223232221128658646;-9223232221128658646;-9223232221128658646;-9223232221128658646;-9223232221128658646;-9223232221128658646;-9223232221128658646;-9223232221128658646;-9223232221128658646;-9223232221128658646;-9223232221128658646;-9223232221128658646;-9223232221128658646;-9223232221128658646;-9223232221128658646;-9223232221128658646;-9223232221128658646;-9223232221128658646;-9223232221128658646;-9223232221128658646;-9223232221128658646;-9223232221128658646;-9223232221128658646;-9223232221128658646;-9223232221128658646;-9223232221128658646;-9223232221128658646;-9223232221128658646;-9223232221128658646;-9223232221128658646;-9223232221128658646;-9223232221128658646;-9223232221128658646;-9223232221128658646;-9223232221128658646;-9223232221128658646;-9223232221128658646;-9223232221128658646;-9223232221128658646;-9223232221128658646;
-9208208515966866713;-9208208515966866713;-9217232221128658543;-9222976294838211816;-9222976294838211816;-9222976294838211816;-9222976294838211816;-9222976294838211816;-9222976294838211816;-9222976294838211816;-9222976294838211816;-9222976294838211816;-9222976294838211816;-9222976294838211816;-9222976294838211816;-9222976294838211816;-9222976294838211816;-9222976294838211816;-9222976294838211816;-9222976294838211816;-9222976294838211816;-9222976294838211816;-9222976294838211816;-9222976294838211816;-9222976294838211816;-9222976294838211816;-9222976294838211816;-9222976294838211816;-9222976294838211816;-9222976294838211816;-9222976294838211816;-9222976294838211816;-9222976294838211816;-9222976294838211816;-9222976294838211816;-9222976294838211816;-9222976294838211816;-9222976294838211816;-9222976294838211816;-9222976294838211816;-9222976294838211816;-9222976294838211816;-9222976294838211816;-9222976294838211816;-9222976294838211816;-9222976294838211816;-9222976294838211816;-9222976294838211816;-9222976294838211816;-9222976294838211816;
-9108976294838210982;-9206720368547761292;-9206720368547761292;-9206720368547761292;-9222976294838211403;-9222976294838211403;-9222976294838211403;-9222976294838211403;-9222976294838211403;-9222976294838211403;-9222976294838211403;-9222976294838211403;-9222976294838211403;-9222976294838211403;-9222976294838211403;-9222976294838211403;-9222976294838211403;-9222976294838211403;-9222976294838211403;-9222976294838211403;-9222976294838211403;-9222976294838211403;-9222976294838211403;-9223208515966866067;-9223208515966866067;-9223208515966866067;-9223208515966866067;-9223208515966866067;-9223208515966866067;-9223208515966866067;-9223208515966866067;-9223208515966866067;-9223208515966866067;-9223208515966866067;-9223208515966866067;-9223208515966866067;-9223208515966866067;-9223208515966866067;-9223208515966866067;-9223208515966866067;-9223208515966866067;-9223208515966866067;-9223208515966866067;-9223208515966866067;-9223208515966866067;-9223208515966866067;-9223208515966866067;-9223208515966866067;-9223208515966866067;-9223208515966866067;
-9105720368547762731;-9209976294838209330;-9219976294838211696;-9219976294838211696;-9219976294838211696;-9219976294838211696;-9220208515966868185;-9220208515966868185;-9220208515966868185;-9220208515966868185;-9220208515966868185;-9220208515966868185;-9220208515966868185;-9220208515966868185;-9220208515966868185;-9220208515966868185;-9220208515966868185;-9220208515966868185;-9220232221128659474;-9220720368547763406;-9220720368547763406;-9220720368547763406;-9220720368547763406;-9220720368547763406;-9220720368547763406;-9220720368547763406;-9220720368547763406;-9220720368547763406;-9221232221128658714;-9221232221128658714;-9221232221128658714;-9221232221128658714;-9221232221128658714;-9223232221128657557;-9223232221128657557;-9223232221128657557;-9223232221128657557;-9223232221128657557;-9223232221128657557;-9223232221128657557;-9223232221128657557;-9223232221128657557;-9223232221128657557;-9223232221128657557;-9223232221128657557;-9223232221128657557;-9223232221128657557;-9223232221128657557;-9223232221128657557;-9223232221128657557;
